
Gurobi 11.0.3 (linux64) logging started Sat Nov 23 19:37:54 2024

Set parameter LogFile to value "/home/yihong/Coding/OR_SUC/SUC_results_bigM100000_thread4/case24_ieee_rts_theta0.1_epsilon0.025_gurobi_seed450000_num_gen100_N_WDR50_load_scaling_factor1_proposed_T24quadra_cost.txt"
Set parameter TimeLimit to value 3600
Gurobi Optimizer version 11.0.3 build v11.0.3rc0 (linux64 - "Ubuntu 20.04.6 LTS")

CPU model: AMD EPYC 7532 32-Core Processor, instruction set [SSE2|AVX|AVX2]
Thread count: 64 physical cores, 128 logical processors, using up to 4 threads

Optimize a model with 50020 rows, 29811 columns and 506326 nonzeros
Model fingerprint: 0x047d212a
Model has 2400 quadratic constraints
Variable types: 27411 continuous, 2400 integer (2400 binary)
Coefficient statistics:
  Matrix range     [3e-04, 3e+03]
  QMatrix range    [2e-03, 8e-03]
  QLMatrix range   [4e-02, 6e+01]
  Objective range  [1e+00, 1e+00]
  Bounds range     [1e+00, 1e+00]
  RHS range        [1e+00, 9e+03]
Presolve removed 40335 rows and 12933 columns
Presolve time: 0.21s
Presolved: 9685 rows, 16878 columns, 51776 nonzeros
Presolved model has 2400 quadratic constraint(s)
Variable types: 14478 continuous, 2400 integer (2400 binary)

Root relaxation: objective 3.597296e+04, 7842 iterations, 0.15 seconds (0.21 work units)

    Nodes    |    Current Node    |     Objective Bounds      |     Work
 Expl Unexpl |  Obj  Depth IntInf | Incumbent    BestBd   Gap | It/Node Time

     0     0 35972.9580    0   24          - 35972.9580      -     -    0s
     0     0 304727.254    0  781          - 304727.254      -     -    0s
     0     0 326547.061    0  776          - 326547.061      -     -    0s
     0     0 632180.685    0  743          - 632180.685      -     -    1s
     0     0 632647.259    0  620          - 632647.259      -     -    1s
     0     0 632892.871    0  488          - 632892.871      -     -    1s
     0     0 632893.346    0  488          - 632893.346      -     -    1s
     0     0 632893.994    0  488          - 632893.994      -     -    1s
     0     0 632896.425    0  488          - 632896.425      -     -    1s
     0     2 632896.425    0  488          - 632896.425      -     -    2s
H  203   220                    661193.75049 632906.520  4.28%  43.5    3s
H  610   328                    633139.98742 632906.520  0.04%  24.9    5s
*  610   328             193    633139.98742 632906.520  0.04%  24.9    5s

Cutting planes:
  Gomory: 5
  Implied bound: 342
  MIR: 118
  Flow cover: 188
  RLT: 8

Explored 684 nodes (39103 simplex iterations) in 5.79 seconds (7.06 work units)
Thread count was 4 (of 128 available processors)

Solution count 3: 633140 633140 661194 

Optimal solution found (tolerance 1.00e-03)
Warning: max constraint violation (2.2145e-09) exceeds tolerance
Best objective 6.331399842946e+05, best bound 6.329065199242e+05, gap 0.0369%
